p wcnf 341 880
w -2 0.566825 0
w 2 1.764213 0
w -3 1.576155 0
w 3 0.634456 0
w -5 1.521783 0
w 5 0.657124 0
w -6 0.777984 0
w 6 1.285373 0
w -8 1.285814 0
w 8 0.777717 0
w -9 1.539273 0
w 9 0.649657 0
w -11 0.805411 0
w 11 1.241602 0
w -12 1.539415 0
w 12 0.649598 0
w -14 0.509572 0
w 14 1.962433 0
w -15 0.385894 0
w 15 2.591383 0
w -17 2.401421 0
w 17 0.416420 0
w -18 0.379111 0
w 18 2.637753 0
w -20 1.677045 0
w 20 0.596287 0
w -21 1.906979 0
w 21 0.524390 0
w -23 1.476083 0
w 23 0.677469 0
w -24 0.622970 0
w 24 1.605215 0
w -26 0.933768 0
w 26 1.070930 0
w -27 1.668402 0
w 27 0.599376 0
w -29 0.617099 0
w 29 1.620486 0
w -30 0.532664 0
w 30 1.877357 0
w -32 0.836945 0
w 32 1.194821 0
w -34 0.553847 0
w 34 1.805554 0
w -35 1.521492 0
w 35 0.657249 0
w -37 0.539391 0
w 37 1.853944 0
w -38 0.751330 0
w 38 1.330974 0
w -40 0.454820 0
w 40 2.198670 0
w -41 2.106340 0
w 41 0.474757 0
w -43 2.076349 0
w 43 0.481615 0
w -44 1.530901 0
w 44 0.653210 0
w -46 1.544400 0
w 46 0.647501 0
w -47 1.420072 0
w 47 0.704190 0
w -49 2.459075 0
w 49 0.406657 0
w -50 1.411404 0
w 50 0.708515 0
w -52 2.238959 0
w 52 0.446636 0
w -53 0.414649 0
w 53 2.411678 0
w -55 0.700425 0
w 55 1.427705 0
w -56 0.521303 0
w 56 1.918270 0
w -58 0.380009 0
w 58 2.631518 0
w -59 1.372320 0
w 59 0.728693 0
w -61 2.009628 0
w 61 0.497604 0
w -62 0.903259 0
w 62 1.107103 0
w -64 0.522479 0
w 64 1.913952 0
w -66 2.048152 0
w 66 0.488245 0
w -67 0.465013 0
w 67 2.150479 0
w -69 0.588017 0
w 69 1.700630 0
w -70 0.903950 0
w 70 1.106255 0
w -72 0.709164 0
w 72 1.410110 0
w -73 0.393136 0
w 73 2.543652 0
w -75 0.798236 0
w 75 1.252762 0
w -76 1.820974 0
w 76 0.549157 0
w -78 0.641115 0
w 78 1.559782 0
w -79 0.668957 0
w 79 1.494864 0
w -81 1.469736 0
w 81 0.680394 0
w -82 0.801607 0
w 82 1.247495 0
w -84 1.555431 0
w 84 0.642909 0
w -85 0.864871 0
w 85 1.156241 0
w -87 1.702024 0
w 87 0.587536 0
w -88 0.933101 0
w 88 1.071695 0
w -90 1.788226 0
w 90 0.559213 0
w -91 0.870653 0
w 91 1.148563 0
w -93 0.567690 0
w 93 1.761525 0
w -94 0.977946 0
w 94 1.022551 0
w -96 2.056219 0
w 96 0.486330 0
w -98 1.392857 0
w 98 0.717949 0
w -99 1.341122 0
w 99 0.745645 0
w -101 0.644960 0
w 101 1.550483 0
w -102 0.665082 0
w 102 1.503575 0
w -104 0.922647 0
w 104 1.083838 0
w -105 0.772506 0
w 105 1.294489 0
w -107 0.833126 0
w 107 1.200299 0
w -108 0.568126 0
w 108 1.760173 0
w -110 0.936771 0
w 110 1.067496 0
w -111 0.779969 0
w 111 1.282102 0
w -113 2.054641 0
w 113 0.486703 0
w -114 0.492690 0
w 114 2.029674 0
w -116 0.686764 0
w 116 1.456105 0
w -117 0.418140 0
w 117 2.391543 0
w -119 1.913201 0
w 119 0.522684 0
w -120 0.429229 0
w 120 2.329758 0
w -122 1.891920 0
w 122 0.528564 0
w -123 0.405847 0
w 123 2.463985 0
w -125 1.388956 0
w 125 0.719965 0
w -126 1.545133 0
w 126 0.647193 0
w -128 0.907836 0
w 128 1.101520 0
w -130 1.805632 0
w 130 0.553823 0
w -131 2.233143 0
w 131 0.447799 0
w -133 0.579948 0
w 133 1.724293 0
w -134 0.467345 0
w 134 2.139748 0
w -136 0.970410 0
w 136 1.030492 0
w -137 2.683385 0
w 137 0.372664 0
w -139 1.045233 0
w 139 0.956724 0
w -140 2.184238 0
w 140 0.457826 0
w -142 1.715563 0
w 142 0.582899 0
w -143 1.964434 0
w 143 0.509053 0
w -145 2.300336 0
w 145 0.434719 0
w -146 0.693078 0
w 146 1.442839 0
w -148 0.551519 0
w 148 1.813175 0
w -149 1.073815 0
w 149 0.931259 0
w -151 2.615638 0
w 151 0.382316 0
w -152 0.418663 0
w 152 2.388555 0
w -154 1.836688 0
w 154 0.544458 0
w -155 1.445582 0
w 155 0.691763 0
w -157 0.393266 0
w 157 2.542810 0
w -158 1.756087 0
w 158 0.569448 0
w -160 0.570726 0
w 160 1.752153 0
w -162 0.784201 0
w 162 1.275183 0
w -163 1.329911 0
w 163 0.751930 0
w -165 1.547601 0
w 165 0.646161 0
w -166 1.425533 0
w 166 0.701492 0
w -168 1.736827 0
w 168 0.575763 0
w -169 0.491774 0
w 169 2.033453 0
w -171 1.579343 0
w 171 0.633175 0
w -172 0.925928 0
w 172 1.079997 0
w -174 0.841929 0
w 174 1.187749 0
w -175 0.740189 0
w 175 1.351006 0
w -177 0.656806 0
w 177 1.522519 0
w -178 2.385190 0
w 178 0.419254 0
w -180 0.661363 0
w 180 1.512029 0
w -181 1.009158 0
w 181 0.990925 0
w -183 2.018908 0
w 183 0.495317 0
w -184 1.679594 0
w 184 0.595382 0
w -186 1.663264 0
w 186 0.601227 0
w -187 0.403385 0
w 187 2.479021 0
w -189 2.137445 0
w 189 0.467848 0
w -190 0.814678 0
w 190 1.227479 0
w -192 2.355288 0
w 192 0.424576 0
w -194 0.512409 0
w 194 1.951564 0
w -195 0.806119 0
w 195 1.240512 0
w -197 0.633705 0
w 197 1.578022 0
w -198 0.862879 0
w 198 1.158911 0
w -200 2.169637 0
w 200 0.460907 0
w -201 2.214627 0
w 201 0.451543 0
w -203 0.403923 0
w 203 2.475722 0
w -204 0.647429 0
w 204 1.544571 0
w -206 0.951854 0
w 206 1.050582 0
w -207 0.402197 0
w 207 2.486341 0
w -209 0.603823 0
w 209 1.656114 0
w -210 2.452979 0
w 210 0.407668 0
w -212 1.357386 0
w 212 0.736710 0
w -213 0.604987 0
w 213 1.652929 0
w -215 1.455254 0
w 215 0.687165 0
w -216 0.407499 0
w 216 2.453992 0
w -218 0.440136 0
w 218 2.272025 0
w -219 1.628244 0
w 219 0.614158 0
w -221 1.441831 0
w 221 0.693563 0
w -222 1.327131 0
w 222 0.753505 0
w -224 0.615705 0
w 224 1.624153 0
w -226 0.640608 0
w 226 1.561018 0
w -227 1.776935 0
w 227 0.562767 0
w -229 1.972849 0
w 229 0.506881 0
w -230 0.912893 0
w 230 1.095418 0
w -232 0.691265 0
w 232 1.446622 0
w -233 0.782059 0
w 233 1.278676 0
w -235 0.610200 0
w 235 1.638808 0
w -236 1.134323 0
w 236 0.881583 0
w -238 0.535668 0
w 238 1.866827 0
w -239 1.017628 0
w 239 0.982677 0
w -241 2.324979 0
w 241 0.430111 0
w -242 0.647520 0
w 242 1.544353 0
w -244 0.688279 0
w 244 1.452899 0
w -245 0.549353 0
w 245 1.820324 0
w -247 0.686117 0
w 247 1.457478 0
w -248 1.150036 0
w 248 0.869538 0
w -250 0.895733 0
w 250 1.116405 0
w -251 2.626913 0
w 251 0.380675 0
w -253 2.442660 0
w 253 0.409390 0
w -254 0.658447 0
w 254 1.518724 0
w -256 0.613922 0
w 256 1.628871 0
w -258 0.553237 0
w 258 1.807544 0
w -259 1.020511 0
w 259 0.979901 0
w -261 0.438206 0
w 261 2.282031 0
w -262 0.445538 0
w 262 2.244475 0
w -264 1.047538 0
w 264 0.954619 0
w -265 0.380917 0
w 265 2.625244 0
w -267 0.523353 0
w 267 1.910757 0
w -268 0.507433 0
w 268 1.970704 0
w -270 0.800126 0
w 270 1.249803 0
w -271 0.486696 0
w 271 2.054672 0
w -273 0.575642 0
w 273 1.737190 0
w -274 0.880725 0
w 274 1.135429 0
w -276 0.429251 0
w 276 2.329639 0
w -277 1.689324 0
w 277 0.591953 0
w -279 1.342812 0
w 279 0.744706 0
w -280 1.557563 0
w 280 0.642029 0
w -282 2.090661 0
w 282 0.478318 0
w -283 2.006249 0
w 283 0.498443 0
w -285 1.804067 0
w 285 0.554303 0
w -286 0.845869 0
w 286 1.182216 0
w -288 0.557854 0
w 288 1.792585 0
w -290 0.705981 0
w 290 1.416468 0
w -291 1.264753 0
w 291 0.790668 0
w -293 1.040367 0
w 293 0.961199 0
w -294 1.194602 0
w 294 0.837099 0
w -296 1.357916 0
w 296 0.736423 0
w -297 1.105529 0
w 297 0.904544 0
w -299 0.521024 0
w 299 1.919299 0
w -300 1.459889 0
w 300 0.684984 0
w -302 0.378594 0
w 302 2.641350 0
w -303 0.452216 0
w 303 2.211333 0
w -305 0.679188 0
w 305 1.472346 0
w -306 1.389449 0
w 306 0.719710 0
w -308 0.978861 0
w 308 1.021595 0
w -309 2.687983 0
w 309 0.372026 0
w -311 2.083946 0
w 311 0.479859 0
w -312 0.602979 0
w 312 1.658433 0
w -314 0.461411 0
w 314 2.167266 0
w -315 2.263351 0
w 315 0.441823 0
w -317 1.362583 0
w 317 0.733900 0
w -318 0.750249 0
w 318 1.332891 0
w -320 0.450339 0
w 320 2.220551 0
w -322 0.575644 0
w 322 1.737185 0
w -324 0.868601 0
w 324 1.151277 0
w -326 0.433519 0
w 326 2.306702 0
w -328 0.978856 0
w 328 1.021601 0
w -330 0.931715 0
w 330 1.073289 0
w -332 0.874366 0
w 332 1.143685 0
w -334 1.498998 0
w 334 0.667112 0
w -336 1.834799 0
w 336 0.545019 0
w -338 0.673236 0
w 338 1.485363 0
w -340 0.736496 0
w 340 1.357780 0
2 1 4 0
2 -1 -4 0
-2 1 -4 0
-2 -1 4 0
3 1 33 0
3 -1 -33 0
-3 1 -33 0
-3 -1 33 0
5 4 7 0
5 -4 -7 0
-5 4 -7 0
-5 -4 7 0
6 4 36 0
6 -4 -36 0
-6 4 -36 0
-6 -4 36 0
8 7 10 0
8 -7 -10 0
-8 7 -10 0
-8 -7 10 0
9 7 39 0
9 -7 -39 0
-9 7 -39 0
-9 -7 39 0
11 10 13 0
11 -10 -13 0
-11 10 -13 0
-11 -10 13 0
12 10 42 0
12 -10 -42 0
-12 10 -42 0
-12 -10 42 0
14 13 16 0
14 -13 -16 0
-14 13 -16 0
-14 -13 16 0
15 13 45 0
15 -13 -45 0
-15 13 -45 0
-15 -13 45 0
17 16 19 0
17 -16 -19 0
-17 16 -19 0
-17 -16 19 0
18 16 48 0
18 -16 -48 0
-18 16 -48 0
-18 -16 48 0
20 19 22 0
20 -19 -22 0
-20 19 -22 0
-20 -19 22 0
21 19 51 0
21 -19 -51 0
-21 19 -51 0
-21 -19 51 0
23 22 25 0
23 -22 -25 0
-23 22 -25 0
-23 -22 25 0
24 22 54 0
24 -22 -54 0
-24 22 -54 0
-24 -22 54 0
26 25 28 0
26 -25 -28 0
-26 25 -28 0
-26 -25 28 0
27 25 57 0
27 -25 -57 0
-27 25 -57 0
-27 -25 57 0
29 28 31 0
29 -28 -31 0
-29 28 -31 0
-29 -28 31 0
30 28 60 0
30 -28 -60 0
-30 28 -60 0
-30 -28 60 0
32 31 63 0
32 -31 -63 0
-32 31 -63 0
-32 -31 63 0
34 33 36 0
34 -33 -36 0
-34 33 -36 0
-34 -33 36 0
35 33 65 0
35 -33 -65 0
-35 33 -65 0
-35 -33 65 0
37 36 39 0
37 -36 -39 0
-37 36 -39 0
-37 -36 39 0
38 36 68 0
38 -36 -68 0
-38 36 -68 0
-38 -36 68 0
40 39 42 0
40 -39 -42 0
-40 39 -42 0
-40 -39 42 0
41 39 71 0
41 -39 -71 0
-41 39 -71 0
-41 -39 71 0
43 42 45 0
43 -42 -45 0
-43 42 -45 0
-43 -42 45 0
44 42 74 0
44 -42 -74 0
-44 42 -74 0
-44 -42 74 0
46 45 48 0
46 -45 -48 0
-46 45 -48 0
-46 -45 48 0
47 45 77 0
47 -45 -77 0
-47 45 -77 0
-47 -45 77 0
49 48 51 0
49 -48 -51 0
-49 48 -51 0
-49 -48 51 0
50 48 80 0
50 -48 -80 0
-50 48 -80 0
-50 -48 80 0
52 51 54 0
52 -51 -54 0
-52 51 -54 0
-52 -51 54 0
53 51 83 0
53 -51 -83 0
-53 51 -83 0
-53 -51 83 0
55 54 57 0
55 -54 -57 0
-55 54 -57 0
-55 -54 57 0
56 54 86 0
56 -54 -86 0
-56 54 -86 0
-56 -54 86 0
58 57 60 0
58 -57 -60 0
-58 57 -60 0
-58 -57 60 0
59 57 89 0
59 -57 -89 0
-59 57 -89 0
-59 -57 89 0
61 60 63 0
61 -60 -63 0
-61 60 -63 0
-61 -60 63 0
62 60 92 0
62 -60 -92 0
-62 60 -92 0
-62 -60 92 0
64 63 95 0
64 -63 -95 0
-64 63 -95 0
-64 -63 95 0
66 65 68 0
66 -65 -68 0
-66 65 -68 0
-66 -65 68 0
67 65 97 0
67 -65 -97 0
-67 65 -97 0
-67 -65 97 0
69 68 71 0
69 -68 -71 0
-69 68 -71 0
-69 -68 71 0
70 68 100 0
70 -68 -100 0
-70 68 -100 0
-70 -68 100 0
72 71 74 0
72 -71 -74 0
-72 71 -74 0
-72 -71 74 0
73 71 103 0
73 -71 -103 0
-73 71 -103 0
-73 -71 103 0
75 74 77 0
75 -74 -77 0
-75 74 -77 0
-75 -74 77 0
76 74 106 0
76 -74 -106 0
-76 74 -106 0
-76 -74 106 0
78 77 80 0
78 -77 -80 0
-78 77 -80 0
-78 -77 80 0
79 77 109 0
79 -77 -109 0
-79 77 -109 0
-79 -77 109 0
81 80 83 0
81 -80 -83 0
-81 80 -83 0
-81 -80 83 0
82 80 112 0
82 -80 -112 0
-82 80 -112 0
-82 -80 112 0
84 83 86 0
84 -83 -86 0
-84 83 -86 0
-84 -83 86 0
85 83 115 0
85 -83 -115 0
-85 83 -115 0
-85 -83 115 0
87 86 89 0
87 -86 -89 0
-87 86 -89 0
-87 -86 89 0
88 86 118 0
88 -86 -118 0
-88 86 -118 0
-88 -86 118 0
90 89 92 0
90 -89 -92 0
-90 89 -92 0
-90 -89 92 0
91 89 121 0
91 -89 -121 0
-91 89 -121 0
-91 -89 121 0
93 92 95 0
93 -92 -95 0
-93 92 -95 0
-93 -92 95 0
94 92 124 0
94 -92 -124 0
-94 92 -124 0
-94 -92 124 0
96 95 127 0
96 -95 -127 0
-96 95 -127 0
-96 -95 127 0
98 97 100 0
98 -97 -100 0
-98 97 -100 0
-98 -97 100 0
99 97 129 0
99 -97 -129 0
-99 97 -129 0
-99 -97 129 0
101 100 103 0
101 -100 -103 0
-101 100 -103 0
-101 -100 103 0
102 100 132 0
102 -100 -132 0
-102 100 -132 0
-102 -100 132 0
104 103 106 0
104 -103 -106 0
-104 103 -106 0
-104 -103 106 0
105 103 135 0
105 -103 -135 0
-105 103 -135 0
-105 -103 135 0
107 106 109 0
107 -106 -109 0
-107 106 -109 0
-107 -106 109 0
108 106 138 0
108 -106 -138 0
-108 106 -138 0
-108 -106 138 0
110 109 112 0
110 -109 -112 0
-110 109 -112 0
-110 -109 112 0
111 109 141 0
111 -109 -141 0
-111 109 -141 0
-111 -109 141 0
113 112 115 0
113 -112 -115 0
-113 112 -115 0
-113 -112 115 0
114 112 144 0
114 -112 -144 0
-114 112 -144 0
-114 -112 144 0
116 115 118 0
116 -115 -118 0
-116 115 -118 0
-116 -115 118 0
117 115 147 0
117 -115 -147 0
-117 115 -147 0
-117 -115 147 0
119 118 121 0
119 -118 -121 0
-119 118 -121 0
-119 -118 121 0
120 118 150 0
120 -118 -150 0
-120 118 -150 0
-120 -118 150 0
122 121 124 0
122 -121 -124 0
-122 121 -124 0
-122 -121 124 0
123 121 153 0
123 -121 -153 0
-123 121 -153 0
-123 -121 153 0
125 124 127 0
125 -124 -127 0
-125 124 -127 0
-125 -124 127 0
126 124 156 0
126 -124 -156 0
-126 124 -156 0
-126 -124 156 0
128 127 159 0
128 -127 -159 0
-128 127 -159 0
-128 -127 159 0
130 129 132 0
130 -129 -132 0
-130 129 -132 0
-130 -129 132 0
131 129 161 0
131 -129 -161 0
-131 129 -161 0
-131 -129 161 0
133 132 135 0
133 -132 -135 0
-133 132 -135 0
-133 -132 135 0
134 132 164 0
134 -132 -164 0
-134 132 -164 0
-134 -132 164 0
136 135 138 0
136 -135 -138 0
-136 135 -138 0
-136 -135 138 0
137 135 167 0
137 -135 -167 0
-137 135 -167 0
-137 -135 167 0
139 138 141 0
139 -138 -141 0
-139 138 -141 0
-139 -138 141 0
140 138 170 0
140 -138 -170 0
-140 138 -170 0
-140 -138 170 0
142 141 144 0
142 -141 -144 0
-142 141 -144 0
-142 -141 144 0
143 141 173 0
143 -141 -173 0
-143 141 -173 0
-143 -141 173 0
145 144 147 0
145 -144 -147 0
-145 144 -147 0
-145 -144 147 0
146 144 176 0
146 -144 -176 0
-146 144 -176 0
-146 -144 176 0
148 147 150 0
148 -147 -150 0
-148 147 -150 0
-148 -147 150 0
149 147 179 0
149 -147 -179 0
-149 147 -179 0
-149 -147 179 0
151 150 153 0
151 -150 -153 0
-151 150 -153 0
-151 -150 153 0
152 150 182 0
152 -150 -182 0
-152 150 -182 0
-152 -150 182 0
154 153 156 0
154 -153 -156 0
-154 153 -156 0
-154 -153 156 0
155 153 185 0
155 -153 -185 0
-155 153 -185 0
-155 -153 185 0
157 156 159 0
157 -156 -159 0
-157 156 -159 0
-157 -156 159 0
158 156 188 0
158 -156 -188 0
-158 156 -188 0
-158 -156 188 0
160 159 191 0
160 -159 -191 0
-160 159 -191 0
-160 -159 191 0
162 161 164 0
162 -161 -164 0
-162 161 -164 0
-162 -161 164 0
163 161 193 0
163 -161 -193 0
-163 161 -193 0
-163 -161 193 0
165 164 167 0
165 -164 -167 0
-165 164 -167 0
-165 -164 167 0
166 164 196 0
166 -164 -196 0
-166 164 -196 0
-166 -164 196 0
168 167 170 0
168 -167 -170 0
-168 167 -170 0
-168 -167 170 0
169 167 199 0
169 -167 -199 0
-169 167 -199 0
-169 -167 199 0
171 170 173 0
171 -170 -173 0
-171 170 -173 0
-171 -170 173 0
172 170 202 0
172 -170 -202 0
-172 170 -202 0
-172 -170 202 0
174 173 176 0
174 -173 -176 0
-174 173 -176 0
-174 -173 176 0
175 173 205 0
175 -173 -205 0
-175 173 -205 0
-175 -173 205 0
177 176 179 0
177 -176 -179 0
-177 176 -179 0
-177 -176 179 0
178 176 208 0
178 -176 -208 0
-178 176 -208 0
-178 -176 208 0
180 179 182 0
180 -179 -182 0
-180 179 -182 0
-180 -179 182 0
181 179 211 0
181 -179 -211 0
-181 179 -211 0
-181 -179 211 0
183 182 185 0
183 -182 -185 0
-183 182 -185 0
-183 -182 185 0
184 182 214 0
184 -182 -214 0
-184 182 -214 0
-184 -182 214 0
186 185 188 0
186 -185 -188 0
-186 185 -188 0
-186 -185 188 0
187 185 217 0
187 -185 -217 0
-187 185 -217 0
-187 -185 217 0
189 188 191 0
189 -188 -191 0
-189 188 -191 0
-189 -188 191 0
190 188 220 0
190 -188 -220 0
-190 188 -220 0
-190 -188 220 0
192 191 223 0
192 -191 -223 0
-192 191 -223 0
-192 -191 223 0
194 193 196 0
194 -193 -196 0
-194 193 -196 0
-194 -193 196 0
195 193 225 0
195 -193 -225 0
-195 193 -225 0
-195 -193 225 0
197 196 199 0
197 -196 -199 0
-197 196 -199 0
-197 -196 199 0
198 196 228 0
198 -196 -228 0
-198 196 -228 0
-198 -196 228 0
200 199 202 0
200 -199 -202 0
-200 199 -202 0
-200 -199 202 0
201 199 231 0
201 -199 -231 0
-201 199 -231 0
-201 -199 231 0
203 202 205 0
203 -202 -205 0
-203 202 -205 0
-203 -202 205 0
204 202 234 0
204 -202 -234 0
-204 202 -234 0
-204 -202 234 0
206 205 208 0
206 -205 -208 0
-206 205 -208 0
-206 -205 208 0
207 205 237 0
207 -205 -237 0
-207 205 -237 0
-207 -205 237 0
209 208 211 0
209 -208 -211 0
-209 208 -211 0
-209 -208 211 0
210 208 240 0
210 -208 -240 0
-210 208 -240 0
-210 -208 240 0
212 211 214 0
212 -211 -214 0
-212 211 -214 0
-212 -211 214 0
213 211 243 0
213 -211 -243 0
-213 211 -243 0
-213 -211 243 0
215 214 217 0
215 -214 -217 0
-215 214 -217 0
-215 -214 217 0
216 214 246 0
216 -214 -246 0
-216 214 -246 0
-216 -214 246 0
218 217 220 0
218 -217 -220 0
-218 217 -220 0
-218 -217 220 0
219 217 249 0
219 -217 -249 0
-219 217 -249 0
-219 -217 249 0
221 220 223 0
221 -220 -223 0
-221 220 -223 0
-221 -220 223 0
222 220 252 0
222 -220 -252 0
-222 220 -252 0
-222 -220 252 0
224 223 255 0
224 -223 -255 0
-224 223 -255 0
-224 -223 255 0
226 225 228 0
226 -225 -228 0
-226 225 -228 0
-226 -225 228 0
227 225 257 0
227 -225 -257 0
-227 225 -257 0
-227 -225 257 0
229 228 231 0
229 -228 -231 0
-229 228 -231 0
-229 -228 231 0
230 228 260 0
230 -228 -260 0
-230 228 -260 0
-230 -228 260 0
232 231 234 0
232 -231 -234 0
-232 231 -234 0
-232 -231 234 0
233 231 263 0
233 -231 -263 0
-233 231 -263 0
-233 -231 263 0
235 234 237 0
235 -234 -237 0
-235 234 -237 0
-235 -234 237 0
236 234 266 0
236 -234 -266 0
-236 234 -266 0
-236 -234 266 0
238 237 240 0
238 -237 -240 0
-238 237 -240 0
-238 -237 240 0
239 237 269 0
239 -237 -269 0
-239 237 -269 0
-239 -237 269 0
241 240 243 0
241 -240 -243 0
-241 240 -243 0
-241 -240 243 0
242 240 272 0
242 -240 -272 0
-242 240 -272 0
-242 -240 272 0
244 243 246 0
244 -243 -246 0
-244 243 -246 0
-244 -243 246 0
245 243 275 0
245 -243 -275 0
-245 243 -275 0
-245 -243 275 0
247 246 249 0
247 -246 -249 0
-247 246 -249 0
-247 -246 249 0
248 246 278 0
248 -246 -278 0
-248 246 -278 0
-248 -246 278 0
250 249 252 0
250 -249 -252 0
-250 249 -252 0
-250 -249 252 0
251 249 281 0
251 -249 -281 0
-251 249 -281 0
-251 -249 281 0
253 252 255 0
253 -252 -255 0
-253 252 -255 0
-253 -252 255 0
254 252 284 0
254 -252 -284 0
-254 252 -284 0
-254 -252 284 0
256 255 287 0
256 -255 -287 0
-256 255 -287 0
-256 -255 287 0
258 257 260 0
258 -257 -260 0
-258 257 -260 0
-258 -257 260 0
259 257 289 0
259 -257 -289 0
-259 257 -289 0
-259 -257 289 0
261 260 263 0
261 -260 -263 0
-261 260 -263 0
-261 -260 263 0
262 260 292 0
262 -260 -292 0
-262 260 -292 0
-262 -260 292 0
264 263 266 0
264 -263 -266 0
-264 263 -266 0
-264 -263 266 0
265 263 295 0
265 -263 -295 0
-265 263 -295 0
-265 -263 295 0
267 266 269 0
267 -266 -269 0
-267 266 -269 0
-267 -266 269 0
268 266 298 0
268 -266 -298 0
-268 266 -298 0
-268 -266 298 0
270 269 272 0
270 -269 -272 0
-270 269 -272 0
-270 -269 272 0
271 269 301 0
271 -269 -301 0
-271 269 -301 0
-271 -269 301 0
273 272 275 0
273 -272 -275 0
-273 272 -275 0
-273 -272 275 0
274 272 304 0
274 -272 -304 0
-274 272 -304 0
-274 -272 304 0
276 275 278 0
276 -275 -278 0
-276 275 -278 0
-276 -275 278 0
277 275 307 0
277 -275 -307 0
-277 275 -307 0
-277 -275 307 0
279 278 281 0
279 -278 -281 0
-279 278 -281 0
-279 -278 281 0
280 278 310 0
280 -278 -310 0
-280 278 -310 0
-280 -278 310 0
282 281 284 0
282 -281 -284 0
-282 281 -284 0
-282 -281 284 0
283 281 313 0
283 -281 -313 0
-283 281 -313 0
-283 -281 313 0
285 284 287 0
285 -284 -287 0
-285 284 -287 0
-285 -284 287 0
286 284 316 0
286 -284 -316 0
-286 284 -316 0
-286 -284 316 0
288 287 319 0
288 -287 -319 0
-288 287 -319 0
-288 -287 319 0
290 289 292 0
290 -289 -292 0
-290 289 -292 0
-290 -289 292 0
291 289 321 0
291 -289 -321 0
-291 289 -321 0
-291 -289 321 0
293 292 295 0
293 -292 -295 0
-293 292 -295 0
-293 -292 295 0
294 292 323 0
294 -292 -323 0
-294 292 -323 0
-294 -292 323 0
296 295 298 0
296 -295 -298 0
-296 295 -298 0
-296 -295 298 0
297 295 325 0
297 -295 -325 0
-297 295 -325 0
-297 -295 325 0
299 298 301 0
299 -298 -301 0
-299 298 -301 0
-299 -298 301 0
300 298 327 0
300 -298 -327 0
-300 298 -327 0
-300 -298 327 0
302 301 304 0
302 -301 -304 0
-302 301 -304 0
-302 -301 304 0
303 301 329 0
303 -301 -329 0
-303 301 -329 0
-303 -301 329 0
305 304 307 0
305 -304 -307 0
-305 304 -307 0
-305 -304 307 0
306 304 331 0
306 -304 -331 0
-306 304 -331 0
-306 -304 331 0
308 307 310 0
308 -307 -310 0
-308 307 -310 0
-308 -307 310 0
309 307 333 0
309 -307 -333 0
-309 307 -333 0
-309 -307 333 0
311 310 313 0
311 -310 -313 0
-311 310 -313 0
-311 -310 313 0
312 310 335 0
312 -310 -335 0
-312 310 -335 0
-312 -310 335 0
314 313 316 0
314 -313 -316 0
-314 313 -316 0
-314 -313 316 0
315 313 337 0
315 -313 -337 0
-315 313 -337 0
-315 -313 337 0
317 316 319 0
317 -316 -319 0
-317 316 -319 0
-317 -316 319 0
318 316 339 0
318 -316 -339 0
-318 316 -339 0
-318 -316 339 0
320 319 341 0
320 -319 -341 0
-320 319 -341 0
-320 -319 341 0
322 321 323 0
322 -321 -323 0
-322 321 -323 0
-322 -321 323 0
324 323 325 0
324 -323 -325 0
-324 323 -325 0
-324 -323 325 0
326 325 327 0
326 -325 -327 0
-326 325 -327 0
-326 -325 327 0
328 327 329 0
328 -327 -329 0
-328 327 -329 0
-328 -327 329 0
330 329 331 0
330 -329 -331 0
-330 329 -331 0
-330 -329 331 0
332 331 333 0
332 -331 -333 0
-332 331 -333 0
-332 -331 333 0
334 333 335 0
334 -333 -335 0
-334 333 -335 0
-334 -333 335 0
336 335 337 0
336 -335 -337 0
-336 335 -337 0
-336 -335 337 0
338 337 339 0
338 -337 -339 0
-338 337 -339 0
-338 -337 339 0
340 339 341 0
340 -339 -341 0
-340 339 -341 0
-340 -339 341 0
